16 15

3 9 1 9 14 8 8 8 4 12
12 10 1 5 6 14 8 11 13 2
11 2 1 2 13 12 5 2 14 4
5 15 1 5 13 3 10 6 2 13 12 4
9 8 5 11 2 8 10 5
4 11 9 3 11 6 1 11
8 5 11 6 3 2 1 15
7 15 1 8 11 15 10 11 15 6
5 4 3 5 7 14 4 15 6 9
15 5 5 8 11 4 4 2
3 14 6 6 12 11 8 4 5 10
4 10 10 15 8 6 14 6 12 14
13 11 15 13 12 12 9 5 1 3
12 10 11 15 1 2 14 13
2 7 6 6 15 13 12 2 3 7
5 4 4 15 8 10 13 15 12 15 7 3
